NAME : amz2489.120986_114986.tour
COMMENT : Cost = 120986_114986
COMMENT : Found by LKH-AMZ [Keld Helsgaun] Sun May 11 13:58:22 2025
COMMENT : TW viol.: 0 #: 0
TYPE : TOUR
DIMENSION : 145
TOUR_SECTION
15
43
136
122
32
79
78
36
104
24
117
87
42
14
111
80
126
93
38
112
76
84
59
70
110
16
69
143
47
86
123
133
115
102
62
90
39
9
7
72
23
77
120
118
21
108
89
144
34
129
140
137
98
114
119
83
45
82
95
5
88
56
127
85
109
29
37
121
145
13
20
52
51
19
61
17
58
1
73
100
31
11
107
26
48
113
92
6
53
97
27
105
103
125
12
141
116
130
49
8
54
124
65
46
96
132
18
35
33
40
25
139
128
81
101
68
30
41
66
138
71
10
28
64
55
2
4
3
91
131
75
106
142
74
22
57
44
60
94
135
50
134
67
99
63
-1
EOF
